GeneratedTests/Random_7/Random_7_14.tsp
NAME: Random_7_14
TYPE: TSP
DIMENSION: 7
EDGE_WEIGHT_TYPE: EUC_2D
NODE_COORD_SECTION
1 7.4745784 7.857162
2 6.243142 2.8275485
3 2.2948072 0.50672597
4 13.653708 3.0337005
5 5.601762 1.4658004
6 7.3978977 20.545877
7 12.546912 0.9227902
EOF
