GeneratedTests/Random_7/Random_7_14.txt
NAME: Random_7_14
TYPE: TSP
DIMENSION: 7
EDGE_WEIGHT_TYPE: EUC_2D
NODE_COORD_SECTION
1 4.469215 13.861139
2 9.095314 11.79221
3 11.320136 6.346527
4 5.221156 20.982601
5 0.43191826 7.078386
6 10.063855 12.896221
7 10.532241 11.7680435
EOF
